results/res_prop_muc/res_Cimatti_mathsat_cores/QF_RDL/fischer6-mutex-3.smt.smt2.res
unsat
( c10
  c100
  c1000
  c1003
  c1006
  c1015
  c1025
  c1035
  c1044
  c1056
  c1068
  c1071
  c1074
  c1076
  c1078
  c1079
  c108
  c1082
  c1085
  c1088
  c1097
  c11
  c1107
  c1117
  c1126
  c1138
  c1150
  c1153
  c1156
  c1157
  c1158
  c1160
  c1161
  c1164
  c1167
  c117
  c1170
  c1179
  c1189
  c1199
  c12
  c1208
  c1220
  c1232
  c1235
  c1238
  c1239
  c1240
  c1243
  c1246
  c1249
  c1252
  c1261
  c1272
  c1280
  c1288
  c129
  c1296
  c13
  c1304
  c1308
  c1312
  c135
  c137
  c1395
  c1396
  c1397
  c1399
  c14
  c140
  c1401
  c1403
  c1405
  c1412
  c143
  c1455
  c146
  c1465
  c1475
  c1485
  c149
  c15
  c1503
  c1512
  c1521
  c1545
  c1555
  c1565
  c1575
  c1585
  c159
  c1594
  c16
  c1603
  c1627
  c1637
  c1647
  c1657
  c1667
  c1676
  c168
  c1685
  c17
  c1709
  c1719
  c1729
  c1739
  c1749
  c1758
  c1767
  c178
  c1791
  c18
  c1801
  c1811
  c1821
  c1831
  c1840
  c1849
  c1873
  c1883
  c1893
  c19
  c190
  c1903
  c1913
  c1922
  c1931
  c1954
  c1965
  c1969
  c1973
  c1977
  c1981
  c1985
  c1989
  c199
  c1993
  c1997
  c20
  c2001
  c2005
  c2009
  c2087
  c2088
  c2089
  c2090
  c2091
  c2092
  c2093
  c2094
  c2095
  c2096
  c2097
  c2098
  c21
  c2105
  c2107
  c211
  c2111
  c2115
  c2119
  c2123
  c2127
  c2130
  c2134
  c2138
  c2142
  c2146
  c2150
  c2155
  c2159
  c2163
  c2167
  c217
  c2171
  c2175
  c2178
  c2179
  c2182
  c2183
  c2186
  c2187
  c219
  c2191
  c2199
  c22
  c2203
  c222
  c225
  c228
  c23
  c231
  c24
  c243
  c25
  c250
  c26
  c260
  c272
  c281
  c293
  c299
  c30
  c301
  c304
  c307
  c310
  c313
  c323
  c332
  c342
  c351
  c354
  c363
  c375
  c38
  c381
  c383
  c385
  c386
  c389
  c392
  c395
  c405
  c414
  c424
  c433
  c436
  c445
  c457
  c46
  c463
  c465
  c467
  c468
  c471
  c474
  c477
  c487
  c496
  c50
  c506
  c515
  c518
  c527
  c539
  c54
  c545
  c546
  c547
  c550
  c553
  c556
  c559
  c568
  c579
  c58
  c587
  c595
  c603
  c611
  c619
  c62
  c702
  c704
  c706
  c708
  c71
  c710
  c712
  c723
  c731
  c739
  c743
  c747
  c751
  c755
  c759
  c761
  c771
  c78
  c781
  c790
  c8
  c801
  c810
  c822
  c825
  c828
  c830
  c832
  c833
  c836
  c839
  c842
  c851
  c861
  c871
  c88
  c880
  c892
  c9
  c904
  c907
  c910
  c912
  c914
  c915
  c918
  c921
  c924
  c933
  c943
  c953
  c962
  c974
  c986
  c989
  c992
  c994
  c996
  c997 )
